This is Ipopt version 3.10.1, running with linear solver mumps.

Number of nonzeros in equality constraint Jacobian...:      236
Number of nonzeros in inequality constraint Jacobian.:        0
Number of nonzeros in Lagrangian Hessian.............:     5892

Total number of variables............................:      120
                     variables with only lower bounds:        0
                variables with lower and upper bounds:      120
                     variables with only upper bounds:        0
Total number of equality constraints.................:       59
Total number of inequality constraints...............:        0
        inequality constraints with only lower bounds:        0
   inequality constraints with lower and upper bounds:        0
        inequality constraints with only upper bounds:        0

iter    objective    inf_pr   inf_du lg(mu)  ||d||  lg(rg) alpha_du alpha_pr  ls
   0 -2.2085303e-03 1.00e-02 1.51e-03  -1.0 0.00e+00    -  0.00e+00 0.00e+00   0
   1 -2.4471907e-03 4.51e-10 5.54e-03  -1.7 3.00e-02    -  9.56e-01 1.00e+00h  1
   2 -2.5629094e-03 2.68e-10 1.63e-05  -2.5 3.84e-02    -  1.00e+00 1.00e+00f  1
   3 -3.1819003e-03 7.52e-12 3.95e-04  -3.8 3.39e-02    -  9.52e-01 1.00e+00f  1
   4 -1.3160178e-02 3.36e-12 1.23e-02  -5.7 2.83e-01  -2.0 4.63e-01 6.81e-01f  1
   5 -1.4747016e-02 3.85e-12 1.04e-02  -5.7 3.36e-02  -0.7 9.74e-01 4.64e-01f  1
   6 -1.8992863e-02 5.42e-12 2.51e-02  -5.7 2.32e-01  -1.1 1.00e+00 1.33e-01f  1
   7 -2.3230816e-02 5.68e-12 9.99e-03  -5.7 4.56e-02  -0.7 1.00e+00 5.11e-01f  1
   8 -2.8480177e-02 8.10e-12 6.26e-02  -5.7 1.95e+00  -1.2 2.50e-01 2.05e-02f  1
   9 -3.4495667e-02 8.87e-12 1.54e-02  -5.7 9.99e-02  -0.8 1.00e+00 3.65e-01f  1
iter    objective    inf_pr   inf_du lg(mu)  ||d||  lg(rg) alpha_du alpha_pr  ls
  10 -3.7955107e-02 6.92e-12 1.56e-02  -5.7 3.39e-02  -0.3 1.00e+00 5.21e-01f  1
  11 -4.1622917e-02 8.15e-12 3.27e-02  -5.7 1.71e-01  -0.8 1.00e+00 1.01e-01f  1
  12 -4.3069757e-02 7.46e-12 1.41e-02  -5.7 3.12e-02  -0.4 1.00e+00 2.09e-01f  1
  13 -4.9921413e-02 9.74e-12 3.34e-02  -5.7 1.67e-01  -0.9 1.00e+00 1.79e-01f  1
  14 -5.3345204e-02 8.86e-12 1.52e-02  -5.7 4.76e-02  -0.4 1.00e+00 3.06e-01f  1
  15 -5.6041354e-02 9.99e-12 6.60e-02  -5.7 4.45e-01  -0.9 5.93e-01 2.48e-02f  1
  16 -6.6047294e-02 9.43e-12 1.97e-02  -5.7 6.28e-02  -0.5 1.00e+00 5.61e-01f  1
  17 -7.3565243e-02 5.34e-12 2.27e-02  -5.7 2.64e-02  -0.1 1.00e+00 1.00e+00f  1
  18 -7.4452793e-02 5.65e-12 4.23e-02  -5.7 1.31e-01  -0.6 1.00e+00 2.12e-02f  1
  19 -7.6935848e-02 5.27e-12 3.06e-02  -5.7 2.76e-02  -0.1 1.00e+00 3.10e-01f  1
iter    objective    inf_pr   inf_du lg(mu)  ||d||  lg(rg) alpha_du alpha_pr  ls
  20 -7.9544423e-02 6.04e-12 5.94e-02  -5.7 1.09e-01  -0.6 1.00e+00 8.32e-02f  1
  21 -8.2213724e-02 5.59e-12 2.29e-02  -5.7 2.99e-02  -0.2 1.00e+00 3.23e-01f  1
  22 -9.6147877e-02 9.85e-12 4.01e-02  -5.7 1.36e-01  -0.7 1.00e+00 3.32e-01f  1
  23 -9.7344256e-02 9.39e-12 3.42e-02  -5.7 4.61e-02  -0.2 1.00e+00 8.20e-02f  1
  24 -1.0222966e-01 1.09e-11 6.01e-02  -5.7 2.89e-01  -0.7 4.57e-01 6.16e-02f  1
  25 -1.0512918e-01 9.94e-12 3.80e-02  -5.7 5.29e-02  -0.3 5.50e-01 1.81e-01f  1
  26 -1.2031278e-01 1.50e-11 3.79e-02  -5.7 5.67e-01  -0.8 1.22e-01 8.41e-02f  1
  27 -1.2168112e-01 1.49e-11 4.33e-02  -5.7 8.84e-02  -0.3 8.07e-01 4.06e-02f  1
  28 -1.2844221e-01 1.74e-11 1.36e-01  -5.7 8.11e+01  -0.8 2.63e-03 2.12e-04f  1
  29 -1.3015045e-01 1.69e-11 7.49e-02  -5.7 9.08e-02  -0.4 1.00e+00 4.54e-02f  1
iter    objective    inf_pr   inf_du lg(mu)  ||d||  lg(rg) alpha_du alpha_pr  ls
  30 -1.4074593e-01 2.00e-11 7.72e-02  -5.7 1.37e+00  -0.9 3.44e-02 2.11e-02f  1
  31 -1.4748537e-01 1.73e-11 6.06e-02  -5.7 9.31e-02  -0.4 5.00e-01 1.99e-01f  1
  32 -1.5498707e-01 2.03e-11 6.53e-02  -5.7 1.49e+00  -0.9 6.24e-02 2.10e-02f  1
  33 -1.6009230e-01 1.86e-11 6.61e-02  -5.7 1.10e-01  -0.5 1.00e+00 1.48e-01f  1
  34 -1.7200117e-01 2.07e-11 8.59e-02  -5.7 2.55e+00  -1.0 4.05e-02 1.67e-02f  1
  35 -1.7451844e-01 2.03e-11 7.81e-02  -5.7 1.35e-01  -0.5 1.00e+00 4.86e-02f  1
  36 -1.7819739e-01 1.57e-11 5.02e-02  -5.7 4.46e-02  -0.1 1.00e+00 2.56e-01f  1
  37 -1.7998078e-01 1.56e-11 1.30e-01  -5.7 1.56e-01  -0.6 1.00e+00 4.37e-02f  1
  38 -1.8750972e-01 1.38e-11 4.46e-02  -5.7 5.09e-02  -0.2 1.00e+00 5.49e-01f  1
  39 -1.8880100e-01 1.38e-11 8.02e-02  -5.7 1.45e-01  -0.6 1.00e+00 4.03e-02f  1
iter    objective    inf_pr   inf_du lg(mu)  ||d||  lg(rg) alpha_du alpha_pr  ls
  40 -1.9592357e-01 1.03e-11 2.85e-02  -5.7 4.45e-02  -0.2 1.00e+00 7.43e-01f  1
  41 -2.0912877e-01 1.03e-11 3.66e-02  -5.7 1.47e-01  -0.7 8.14e-01 3.72e-01f  1
  42 -2.1189631e-01 8.30e-12 5.87e-02  -5.7 4.29e-02  -0.3 1.00e+00 3.11e-01f  1
  43 -2.2144954e-01 8.48e-12 3.95e-02  -5.7 1.02e-01  -0.7 1.00e+00 4.19e-01f  1
  44 -2.2299238e-01 8.07e-12 7.56e-02  -5.7 3.45e-02  -0.3 1.00e+00 2.84e-01f  1
  45 -2.4964198e-01 1.42e-11 4.16e-02  -5.7 2.32e-01  -0.8 4.43e-01 4.49e-01f  1
  46 -2.5153726e-01 1.16e-11 8.36e-02  -5.7 7.39e-02  -0.4 6.44e-01 1.38e-01f  1
  47 -2.5476051e-01 1.15e-11 7.56e-02  -5.7 1.84e-01  -0.8 4.89e-01 8.93e-02f  1
  48 -2.7088461e-01 2.00e-11 9.03e-02  -5.7 2.75e+00  -1.3 8.55e-02 4.36e-02f  1
  49 -2.7850148e-01 2.36e-11 7.70e-02  -5.7 2.00e-01  -0.9 1.00e+00 1.81e-01f  1
iter    objective    inf_pr   inf_du lg(mu)  ||d||  lg(rg) alpha_du alpha_pr  ls
  50 -2.8135889e-01 2.33e-11 5.68e-02  -5.7 6.61e-02  -0.5 1.00e+00 1.93e-01f  1
  51 -2.8731725e-01 2.04e-11 7.21e-02  -5.7 1.28e-01  -0.9 1.00e+00 2.20e-01f  1
  52 -3.9736017e-01 4.54e-11 1.33e-01  -5.7 4.78e+00  -1.4 3.69e-02 6.46e-02f  1
  53 -3.9968968e-01 4.03e-11 1.13e-01  -5.7 8.10e-02  -0.1 2.31e-01 1.40e-01f  1
  54 -4.0027002e-01 4.04e-11 1.13e-01  -5.7 2.84e-01  -0.6 4.18e-03 2.79e-03f  1
  55 -4.0028955e-01 4.04e-11 1.13e-01  -5.7 1.13e-01  -0.1 1.09e-01 1.41e-03f  1
  56 -4.3237544e-01 4.69e-11 1.10e-01  -5.7 3.74e-01  -0.6 7.03e-02 1.10e-01f  1
  57 -4.4271188e-01 5.84e-11 9.11e-02  -5.7 8.42e-02  -0.2 3.11e-01 2.34e-01f  1
  58 -4.4348761e-01 5.71e-11 8.91e-02  -5.7 2.35e-02   0.2 1.38e-01 3.35e-02f  1
  59 -4.9039987e-01 6.45e-11 7.52e-02  -5.7 1.10e-01  -0.2 1.93e-01 3.93e-01f  1
iter    objective    inf_pr   inf_du lg(mu)  ||d||  lg(rg) alpha_du alpha_pr  ls
  60 -4.9658069e-01 5.40e-11 7.39e-02  -5.7 4.14e-02   0.2 6.52e-02 1.15e-01f  1
  61 -5.1791665e-01 5.92e-11 3.43e-01  -5.7 5.76e-01  -0.3 2.84e-01 2.54e-02f  1
  62 -6.5637599e-01 1.63e-10 1.24e-01  -5.7 6.36e-02   0.1 4.67e-01 1.00e+00f  1
  63 -7.3389456e-01 6.67e-11 1.40e-01  -5.7 3.84e-02   0.6 1.00e+00 5.42e-01f  1
  64 -7.4841472e-01 5.50e-11 1.40e-01  -5.7 1.49e-02   1.0 1.00e+00 2.22e-01f  1
  65 -7.5665355e-01 5.58e-11 3.55e-01  -5.7 5.83e-02   0.5 3.00e-01 3.92e-02f  1
  66 -7.7209461e-01 5.20e-11 2.89e-01  -5.7 1.57e-02   0.9 4.95e-01 2.56e-01f  1
  67 -8.6331494e-01 6.96e-11 4.02e-01  -5.7 8.36e-02   0.5 1.00e+00 2.51e-01f  1
  68 -9.0859935e-01 7.55e-11 4.90e-01  -5.7 3.24e-02   0.9 1.00e+00 4.06e-01f  1
  69 -9.1990212e-01 7.99e-11 8.36e-01  -5.7 2.50e-01   0.4 2.74e-01 1.24e-02f  1
iter    objective    inf_pr   inf_du lg(mu)  ||d||  lg(rg) alpha_du alpha_pr  ls
  70 -9.2208837e-01 8.07e-11 8.13e-01  -5.7 3.71e-02   0.8 2.62e-02 2.85e-02f  1
  71 -9.4046209e-01 8.92e-11 1.13e+00  -5.7 1.62e-01   0.4 8.59e-01 5.39e-02f  1
  72 -9.7896538e-01 9.71e-11 2.90e-01  -5.7 4.35e-02   0.8 1.00e+00 3.93e-01f  1
  73 -9.9748121e-01 1.02e-10 1.09e+00  -5.7 1.38e-01   0.3 1.00e+00 4.56e-02f  1
  74 -9.9969309e-01 2.70e-10 6.19e-01  -5.7 8.96e-04    -  3.46e-01 6.34e-01f  1
  75 -9.9971533e-01 1.14e-10 5.56e-01  -5.7 3.76e-05    -  1.00e+00 3.85e-01f  1
  76 -9.9977311e-01 1.41e-10 7.79e-02  -5.7 3.53e-05    -  1.00e+00 9.06e-01f  1
  77 -9.9977907e-01 1.07e-10 1.08e-10  -5.7 8.24e-06    -  1.00e+00 1.00e+00f  1
  78 -1.0000001e+00 7.43e-14 1.85e-07  -8.6 2.49e-05    -  1.00e+00 9.99e-01f  1
  79 -1.0000001e+00 4.00e-11 1.34e-01  -8.6 1.34e-08    -  8.73e-01 1.00e+00f  1
iter    objective    inf_pr   inf_du lg(mu)  ||d||  lg(rg) alpha_du alpha_pr  ls
  80 -1.0000001e+00 1.82e-11 1.96e-15  -8.6 6.87e-09    -  1.00e+00 1.00e+00h  1

Number of Iterations....: 80

                                   (scaled)                 (unscaled)
Objective...............:  -1.0000001139180641e+00   -1.0000001139180641e+00
Dual infeasibility......:   1.9615669985904765e-15    1.9615669985904765e-15
Constraint violation....:   1.8199441953470341e-11    1.8199441953470341e-11
Complementarity.........:   4.9584721896133813e-09    4.9584721896133813e-09
Overall NLP error.......:   4.9584721896133813e-09    4.9584721896133813e-09


Number of objective function evaluations             = 81
Number of objective gradient evaluations             = 81
Number of equality constraint evaluations            = 81
Number of inequality constraint evaluations          = 0
Number of equality constraint Jacobian evaluations   = 1
Number of inequality constraint Jacobian evaluations = 0
Number of Lagrangian Hessian evaluations             = 80
Total CPU secs in IPOPT (w/o function evaluations)   =      0.400
Total CPU secs in NLP function evaluations           =      5.570

EXIT: Optimal Solution Found.
